WARNING: for repeatability, setting FPU to use double precision
============================[ Problem Statistics ]=============================
|                                                                             |
|  Number of variables:          3098                                         |
|  Number of clauses:            8994                                         |
|  Parse time:                   0.00 s                                       |
|                                                                             |
c ============================[ Search Statistics ]==============================
c | Conflicts |          ORIGINAL         |          LEARNT          | Progress |
c |           |    Vars  Clauses Literals |    Limit  Clauses Lit/Cl |          |
c ===============================================================================
We had 51 decisions of which only 0 were on extended
We had 82448 decisions of which only 0 were on extended
We had 105365 decisions of which only 0.0892137 were on extended
We had 130689 decisions of which only 0.195885 were on extended
We had 174060 decisions of which only 0.507871 were on extended
We had 220686 decisions of which only 0.566416 were on extended
We had 236822 decisions of which only 0.540068 were on extended
We had 250885 decisions of which only 0.521753 were on extended
We had 264490 decisions of which only 0.517222 were on extended
We had 278227 decisions of which only 0.506421 were on extended
We had 290811 decisions of which only 0.496886 were on extended
We had 302958 decisions of which only 0.497099 were on extended
c Switched to VSIDS.
We had 315665 decisions of which only 0.576561 were on extended
We had 328940 decisions of which only 0.624734 were on extended
We had 341014 decisions of which only 0.69264 were on extended
We had 353909 decisions of which only 0.778731 were on extended
We had 367801 decisions of which only 0.867861 were on extended
We had 379189 decisions of which only 0.858938 were on extended
We had 392087 decisions of which only 0.894954 were on extended
Window full
Continue
We had 403582 decisions of which only 0.884331 were on extended
We had 415019 decisions of which only 0.941885 were on extended
We had 426147 decisions of which only 0.924798 were on extended
We had 438273 decisions of which only 0.926135 were on extended
We had 450363 decisions of which only 0.920369 were on extended
We had 462390 decisions of which only 0.917191 were on extended
We had 474166 decisions of which only 0.915502 were on extended
c Switched to LRB.
We had 485838 decisions of which only 0.908122 were on extended
We had 499269 decisions of which only 0.962808 were on extended
We had 512775 decisions of which only 1.01058 were on extended
Window full
Continue
We had 526127 decisions of which only 1.04633 were on extended
We had 538314 decisions of which only 1.08245 were on extended
We had 551924 decisions of which only 1.14182 were on extended
We had 565472 decisions of which only 1.1394 were on extended
We had 578972 decisions of which only 1.16776 were on extended
We had 592468 decisions of which only 1.18842 were on extended
We had 604002 decisions of which only 1.18162 were on extended
We had 615909 decisions of which only 1.20602 were on extended
We had 628792 decisions of which only 1.23364 were on extended
We had 641411 decisions of which only 1.24444 were on extended
Window full
Continue
We had 655196 decisions of which only 1.27687 were on extended
We had 668652 decisions of which only 1.27765 were on extended
c Switched to VSIDS.
We had 681558 decisions of which only 1.28397 were on extended
We had 693500 decisions of which only 1.28248 were on extended
We had 705002 decisions of which only 1.26808 were on extended
We had 716445 decisions of which only 1.25774 were on extended
We had 728707 decisions of which only 1.2551 were on extended
We had 741140 decisions of which only 1.25766 were on extended
We had 753148 decisions of which only 1.27093 were on extended
We had 765316 decisions of which only 1.29319 were on extended
Window full
Continue
We had 777276 decisions of which only 1.29362 were on extended
c ===============================================================================
restarts                  : 886
conflicts                 : 497425         (5917 /sec)
decisions                 : 785917         (0.00 % random) (9349 /sec)
propagations              : 119595905      (1422661 /sec)
conflict literals         : 18314794       (44.01 % deleted)

conflicts w/ DIP found    : 354810         (71.33 % of conflicts)
conflicts w/ dangerous DIP: 0              (0.00 % of conflicts)
conflicts w/ DIP-learning : 1060           (0.21 % of conflicts)
decisions on ext vars     : 10265          (1.31 % of decisions)
total ext vars            : 343         
tried delete ext vars     : 0           
deleted ext vars          : 0           
max ext vars              : 343         

Memory used               : 56.00 MB
CPU time                  : 84.0649 s
DIP computation time      : 4.90417 s (5.83 % of total time)
ER_sel time               : 0.509003 s
ER_add time               : 0.001388 s
ER_delC time              : 0 s
ER_delV time              : 0 s
ER_sub time               : 0.631046 s
ER_stat time              : 0 s

UNSATISFIABLE
